Maximize
+  C1,2 + C1,9 +  C2,3 + C2,10 +  C3,4 + C3,11 +  C4,5 + C4,12 +  C5,6 + C5,13 +  C6,7 + C6,14 +  C7,8 + C7,15 + C8,16 +  C9,10 + C9,17 +  C10,11 + C10,18 +  C11,12 + C11,19 +  C12,13 + C12,20 +  C13,14 + C13,21 +  C14,15 + C14,22 +  C15,16 + C15,23 + C16,24 +  C17,18 + C17,25 +  C18,19 + C18,26 +  C19,20 + C19,27 +  C20,21 + C20,28 +  C21,22 + C21,29 +  C22,23 + C22,30 +  C23,24 + C23,31 + C24,32 +  C25,26 + C25,33 +  C26,27 + C26,34 +  C27,28 + C27,35 +  C28,29 + C28,36 +  C29,30 + C29,37 +  C30,31 + C30,38 +  C31,32 + C31,39 + C32,40 +  C33,34 + C33,41 +  C34,35 + C34,42 +  C35,36 + C35,43 +  C36,37 + C36,44 +  C37,38 + C37,45 +  C38,39 + C38,46 +  C39,40 + C39,47 + C40,48 +  C41,42 + C41,49 +  C42,43 + C42,50 +  C43,44 + C43,51 +  C44,45 + C44,52 +  C45,46 + C45,53 +  C46,47 + C46,54 +  C47,48 + C47,55 + C48,56 +  C49,50 + C49,57 +  C50,51 + C50,58 +  C51,52 + C51,59 +  C52,53 + C52,60 +  C53,54 + C53,61 +  C54,55 + C54,62 +  C55,56 + C55,63 + C56,64 +  C57,58 +  C58,59 +  C59,60 +  C60,61 +  C61,62 +  C62,63 +  C63,64  - Offset 
  

subject to 
Offset = 3 
+ A1,1 + A1,2 + A1,3 + A1,4 + A1,5 + A1,6 + A1,7 + A1,8 + A1,9 + A1,10 + A1,11 + A1,12 + A1,13 + A1,14 + A1,15 + A1,16 + A1,17 + A1,18 + A1,19 + A1,20 + A1,21 + A1,22 + A1,23 + A1,24 + A1,25 + A1,26 + A1,27 + A1,28 + A1,29 + A1,30 + A1,31 + A1,32 + A1,33 + A1,34 + A1,35 + A1,36 + A1,37 + A1,38 + A1,39 + A1,40 + A1,41 + A1,42 + A1,43 + A1,44 + A1,45 + A1,46 + A1,47 + A1,48 + A1,49 + A1,50 + A1,51 + A1,52 + A1,53 + A1,54 + A1,55 + A1,56 + A1,57 + A1,58 + A1,59 + A1,60 + A1,61 + A1,62 + A1,63 + A1,64 =  1 
+ A2,1 + A2,2 + A2,3 + A2,4 + A2,5 + A2,6 + A2,7 + A2,8 + A2,9 + A2,10 + A2,11 + A2,12 + A2,13 + A2,14 + A2,15 + A2,16 + A2,17 + A2,18 + A2,19 + A2,20 + A2,21 + A2,22 + A2,23 + A2,24 + A2,25 + A2,26 + A2,27 + A2,28 + A2,29 + A2,30 + A2,31 + A2,32 + A2,33 + A2,34 + A2,35 + A2,36 + A2,37 + A2,38 + A2,39 + A2,40 + A2,41 + A2,42 + A2,43 + A2,44 + A2,45 + A2,46 + A2,47 + A2,48 + A2,49 + A2,50 + A2,51 + A2,52 + A2,53 + A2,54 + A2,55 + A2,56 + A2,57 + A2,58 + A2,59 + A2,60 + A2,61 + A2,62 + A2,63 + A2,64 =  1 
+ A3,1 + A3,2 + A3,3 + A3,4 + A3,5 + A3,6 + A3,7 + A3,8 + A3,9 + A3,10 + A3,11 + A3,12 + A3,13 + A3,14 + A3,15 + A3,16 + A3,17 + A3,18 + A3,19 + A3,20 + A3,21 + A3,22 + A3,23 + A3,24 + A3,25 + A3,26 + A3,27 + A3,28 + A3,29 + A3,30 + A3,31 + A3,32 + A3,33 + A3,34 + A3,35 + A3,36 + A3,37 + A3,38 + A3,39 + A3,40 + A3,41 + A3,42 + A3,43 + A3,44 + A3,45 + A3,46 + A3,47 + A3,48 + A3,49 + A3,50 + A3,51 + A3,52 + A3,53 + A3,54 + A3,55 + A3,56 + A3,57 + A3,58 + A3,59 + A3,60 + A3,61 + A3,62 + A3,63 + A3,64 =  1 
+ A4,1 + A4,2 + A4,3 + A4,4 + A4,5 + A4,6 + A4,7 + A4,8 + A4,9 + A4,10 + A4,11 + A4,12 + A4,13 + A4,14 + A4,15 + A4,16 + A4,17 + A4,18 + A4,19 + A4,20 + A4,21 + A4,22 + A4,23 + A4,24 + A4,25 + A4,26 + A4,27 + A4,28 + A4,29 + A4,30 + A4,31 + A4,32 + A4,33 + A4,34 + A4,35 + A4,36 + A4,37 + A4,38 + A4,39 + A4,40 + A4,41 + A4,42 + A4,43 + A4,44 + A4,45 + A4,46 + A4,47 + A4,48 + A4,49 + A4,50 + A4,51 + A4,52 + A4,53 + A4,54 + A4,55 + A4,56 + A4,57 + A4,58 + A4,59 + A4,60 + A4,61 + A4,62 + A4,63 + A4,64 =  1 
+ A5,1 + A5,2 + A5,3 + A5,4 + A5,5 + A5,6 + A5,7 + A5,8 + A5,9 + A5,10 + A5,11 + A5,12 + A5,13 + A5,14 + A5,15 + A5,16 + A5,17 + A5,18 + A5,19 + A5,20 + A5,21 + A5,22 + A5,23 + A5,24 + A5,25 + A5,26 + A5,27 + A5,28 + A5,29 + A5,30 + A5,31 + A5,32 + A5,33 + A5,34 + A5,35 + A5,36 + A5,37 + A5,38 + A5,39 + A5,40 + A5,41 + A5,42 + A5,43 + A5,44 + A5,45 + A5,46 + A5,47 + A5,48 + A5,49 + A5,50 + A5,51 + A5,52 + A5,53 + A5,54 + A5,55 + A5,56 + A5,57 + A5,58 + A5,59 + A5,60 + A5,61 + A5,62 + A5,63 + A5,64 =  1 
+ A6,1 + A6,2 + A6,3 + A6,4 + A6,5 + A6,6 + A6,7 + A6,8 + A6,9 + A6,10 + A6,11 + A6,12 + A6,13 + A6,14 + A6,15 + A6,16 + A6,17 + A6,18 + A6,19 + A6,20 + A6,21 + A6,22 + A6,23 + A6,24 + A6,25 + A6,26 + A6,27 + A6,28 + A6,29 + A6,30 + A6,31 + A6,32 + A6,33 + A6,34 + A6,35 + A6,36 + A6,37 + A6,38 + A6,39 + A6,40 + A6,41 + A6,42 + A6,43 + A6,44 + A6,45 + A6,46 + A6,47 + A6,48 + A6,49 + A6,50 + A6,51 + A6,52 + A6,53 + A6,54 + A6,55 + A6,56 + A6,57 + A6,58 + A6,59 + A6,60 + A6,61 + A6,62 + A6,63 + A6,64 =  1 
+ A7,1 + A7,2 + A7,3 + A7,4 + A7,5 + A7,6 + A7,7 + A7,8 + A7,9 + A7,10 + A7,11 + A7,12 + A7,13 + A7,14 + A7,15 + A7,16 + A7,17 + A7,18 + A7,19 + A7,20 + A7,21 + A7,22 + A7,23 + A7,24 + A7,25 + A7,26 + A7,27 + A7,28 + A7,29 + A7,30 + A7,31 + A7,32 + A7,33 + A7,34 + A7,35 + A7,36 + A7,37 + A7,38 + A7,39 + A7,40 + A7,41 + A7,42 + A7,43 + A7,44 + A7,45 + A7,46 + A7,47 + A7,48 + A7,49 + A7,50 + A7,51 + A7,52 + A7,53 + A7,54 + A7,55 + A7,56 + A7,57 + A7,58 + A7,59 + A7,60 + A7,61 + A7,62 + A7,63 + A7,64 =  1 
+ A8,1 + A8,2 + A8,3 + A8,4 + A8,5 + A8,6 + A8,7 + A8,8 + A8,9 + A8,10 + A8,11 + A8,12 + A8,13 + A8,14 + A8,15 + A8,16 + A8,17 + A8,18 + A8,19 + A8,20 + A8,21 + A8,22 + A8,23 + A8,24 + A8,25 + A8,26 + A8,27 + A8,28 + A8,29 + A8,30 + A8,31 + A8,32 + A8,33 + A8,34 + A8,35 + A8,36 + A8,37 + A8,38 + A8,39 + A8,40 + A8,41 + A8,42 + A8,43 + A8,44 + A8,45 + A8,46 + A8,47 + A8,48 + A8,49 + A8,50 + A8,51 + A8,52 + A8,53 + A8,54 + A8,55 + A8,56 + A8,57 + A8,58 + A8,59 + A8,60 + A8,61 + A8,62 + A8,63 + A8,64 =  1 
+ A1,1 + A2,1 + A3,1 + A4,1 + A5,1 + A6,1 + A7,1 + A8,1 <=  1 
+ A1,2 + A2,2 + A3,2 + A4,2 + A5,2 + A6,2 + A7,2 + A8,2 <=  1 
+ A1,3 + A2,3 + A3,3 + A4,3 + A5,3 + A6,3 + A7,3 + A8,3 <=  1 
+ A1,4 + A2,4 + A3,4 + A4,4 + A5,4 + A6,4 + A7,4 + A8,4 <=  1 
+ A1,5 + A2,5 + A3,5 + A4,5 + A5,5 + A6,5 + A7,5 + A8,5 <=  1 
+ A1,6 + A2,6 + A3,6 + A4,6 + A5,6 + A6,6 + A7,6 + A8,6 <=  1 
+ A1,7 + A2,7 + A3,7 + A4,7 + A5,7 + A6,7 + A7,7 + A8,7 <=  1 
+ A1,8 + A2,8 + A3,8 + A4,8 + A5,8 + A6,8 + A7,8 + A8,8 <=  1 
+ A1,9 + A2,9 + A3,9 + A4,9 + A5,9 + A6,9 + A7,9 + A8,9 <=  1 
+ A1,10 + A2,10 + A3,10 + A4,10 + A5,10 + A6,10 + A7,10 + A8,10 <=  1 
+ A1,11 + A2,11 + A3,11 + A4,11 + A5,11 + A6,11 + A7,11 + A8,11 <=  1 
+ A1,12 + A2,12 + A3,12 + A4,12 + A5,12 + A6,12 + A7,12 + A8,12 <=  1 
+ A1,13 + A2,13 + A3,13 + A4,13 + A5,13 + A6,13 + A7,13 + A8,13 <=  1 
+ A1,14 + A2,14 + A3,14 + A4,14 + A5,14 + A6,14 + A7,14 + A8,14 <=  1 
+ A1,15 + A2,15 + A3,15 + A4,15 + A5,15 + A6,15 + A7,15 + A8,15 <=  1 
+ A1,16 + A2,16 + A3,16 + A4,16 + A5,16 + A6,16 + A7,16 + A8,16 <=  1 
+ A1,17 + A2,17 + A3,17 + A4,17 + A5,17 + A6,17 + A7,17 + A8,17 <=  1 
+ A1,18 + A2,18 + A3,18 + A4,18 + A5,18 + A6,18 + A7,18 + A8,18 <=  1 
+ A1,19 + A2,19 + A3,19 + A4,19 + A5,19 + A6,19 + A7,19 + A8,19 <=  1 
+ A1,20 + A2,20 + A3,20 + A4,20 + A5,20 + A6,20 + A7,20 + A8,20 <=  1 
+ A1,21 + A2,21 + A3,21 + A4,21 + A5,21 + A6,21 + A7,21 + A8,21 <=  1 
+ A1,22 + A2,22 + A3,22 + A4,22 + A5,22 + A6,22 + A7,22 + A8,22 <=  1 
+ A1,23 + A2,23 + A3,23 + A4,23 + A5,23 + A6,23 + A7,23 + A8,23 <=  1 
+ A1,24 + A2,24 + A3,24 + A4,24 + A5,24 + A6,24 + A7,24 + A8,24 <=  1 
+ A1,25 + A2,25 + A3,25 + A4,25 + A5,25 + A6,25 + A7,25 + A8,25 <=  1 
+ A1,26 + A2,26 + A3,26 + A4,26 + A5,26 + A6,26 + A7,26 + A8,26 <=  1 
+ A1,27 + A2,27 + A3,27 + A4,27 + A5,27 + A6,27 + A7,27 + A8,27 <=  1 
+ A1,28 + A2,28 + A3,28 + A4,28 + A5,28 + A6,28 + A7,28 + A8,28 <=  1 
+ A1,29 + A2,29 + A3,29 + A4,29 + A5,29 + A6,29 + A7,29 + A8,29 <=  1 
+ A1,30 + A2,30 + A3,30 + A4,30 + A5,30 + A6,30 + A7,30 + A8,30 <=  1 
+ A1,31 + A2,31 + A3,31 + A4,31 + A5,31 + A6,31 + A7,31 + A8,31 <=  1 
+ A1,32 + A2,32 + A3,32 + A4,32 + A5,32 + A6,32 + A7,32 + A8,32 <=  1 
+ A1,33 + A2,33 + A3,33 + A4,33 + A5,33 + A6,33 + A7,33 + A8,33 <=  1 
+ A1,34 + A2,34 + A3,34 + A4,34 + A5,34 + A6,34 + A7,34 + A8,34 <=  1 
+ A1,35 + A2,35 + A3,35 + A4,35 + A5,35 + A6,35 + A7,35 + A8,35 <=  1 
+ A1,36 + A2,36 + A3,36 + A4,36 + A5,36 + A6,36 + A7,36 + A8,36 <=  1 
+ A1,37 + A2,37 + A3,37 + A4,37 + A5,37 + A6,37 + A7,37 + A8,37 <=  1 
+ A1,38 + A2,38 + A3,38 + A4,38 + A5,38 + A6,38 + A7,38 + A8,38 <=  1 
+ A1,39 + A2,39 + A3,39 + A4,39 + A5,39 + A6,39 + A7,39 + A8,39 <=  1 
+ A1,40 + A2,40 + A3,40 + A4,40 + A5,40 + A6,40 + A7,40 + A8,40 <=  1 
+ A1,41 + A2,41 + A3,41 + A4,41 + A5,41 + A6,41 + A7,41 + A8,41 <=  1 
+ A1,42 + A2,42 + A3,42 + A4,42 + A5,42 + A6,42 + A7,42 + A8,42 <=  1 
+ A1,43 + A2,43 + A3,43 + A4,43 + A5,43 + A6,43 + A7,43 + A8,43 <=  1 
+ A1,44 + A2,44 + A3,44 + A4,44 + A5,44 + A6,44 + A7,44 + A8,44 <=  1 
+ A1,45 + A2,45 + A3,45 + A4,45 + A5,45 + A6,45 + A7,45 + A8,45 <=  1 
+ A1,46 + A2,46 + A3,46 + A4,46 + A5,46 + A6,46 + A7,46 + A8,46 <=  1 
+ A1,47 + A2,47 + A3,47 + A4,47 + A5,47 + A6,47 + A7,47 + A8,47 <=  1 
+ A1,48 + A2,48 + A3,48 + A4,48 + A5,48 + A6,48 + A7,48 + A8,48 <=  1 
+ A1,49 + A2,49 + A3,49 + A4,49 + A5,49 + A6,49 + A7,49 + A8,49 <=  1 
+ A1,50 + A2,50 + A3,50 + A4,50 + A5,50 + A6,50 + A7,50 + A8,50 <=  1 
+ A1,51 + A2,51 + A3,51 + A4,51 + A5,51 + A6,51 + A7,51 + A8,51 <=  1 
+ A1,52 + A2,52 + A3,52 + A4,52 + A5,52 + A6,52 + A7,52 + A8,52 <=  1 
+ A1,53 + A2,53 + A3,53 + A4,53 + A5,53 + A6,53 + A7,53 + A8,53 <=  1 
+ A1,54 + A2,54 + A3,54 + A4,54 + A5,54 + A6,54 + A7,54 + A8,54 <=  1 
+ A1,55 + A2,55 + A3,55 + A4,55 + A5,55 + A6,55 + A7,55 + A8,55 <=  1 
+ A1,56 + A2,56 + A3,56 + A4,56 + A5,56 + A6,56 + A7,56 + A8,56 <=  1 
+ A1,57 + A2,57 + A3,57 + A4,57 + A5,57 + A6,57 + A7,57 + A8,57 <=  1 
+ A1,58 + A2,58 + A3,58 + A4,58 + A5,58 + A6,58 + A7,58 + A8,58 <=  1 
+ A1,59 + A2,59 + A3,59 + A4,59 + A5,59 + A6,59 + A7,59 + A8,59 <=  1 
+ A1,60 + A2,60 + A3,60 + A4,60 + A5,60 + A6,60 + A7,60 + A8,60 <=  1 
+ A1,61 + A2,61 + A3,61 + A4,61 + A5,61 + A6,61 + A7,61 + A8,61 <=  1 
+ A1,62 + A2,62 + A3,62 + A4,62 + A5,62 + A6,62 + A7,62 + A8,62 <=  1 
+ A1,63 + A2,63 + A3,63 + A4,63 + A5,63 + A6,63 + A7,63 + A8,63 <=  1 
+ A1,64 + A2,64 + A3,64 + A4,64 + A5,64 + A6,64 + A7,64 + A8,64 <=  1 
A1,10 - A2,11 - A2,9 - A2,18 - A2,2 <= 0
A2,10 - A3,11 - A3,9 - A3,18 - A3,2 <= 0
A3,10 - A4,11 - A4,9 - A4,18 - A4,2 <= 0
A4,10 - A5,11 - A5,9 - A5,18 - A5,2 <= 0
A5,10 - A6,11 - A6,9 - A6,18 - A6,2 <= 0
A6,10 - A7,11 - A7,9 - A7,18 - A7,2 <= 0
A7,10 - A8,11 - A8,9 - A8,18 - A8,2 <= 0
A1,11 - A2,12 - A2,10 - A2,19 - A2,3 <= 0
A2,11 - A3,12 - A3,10 - A3,19 - A3,3 <= 0
A3,11 - A4,12 - A4,10 - A4,19 - A4,3 <= 0
A4,11 - A5,12 - A5,10 - A5,19 - A5,3 <= 0
A5,11 - A6,12 - A6,10 - A6,19 - A6,3 <= 0
A6,11 - A7,12 - A7,10 - A7,19 - A7,3 <= 0
A7,11 - A8,12 - A8,10 - A8,19 - A8,3 <= 0
A1,12 - A2,13 - A2,11 - A2,20 - A2,4 <= 0
A2,12 - A3,13 - A3,11 - A3,20 - A3,4 <= 0
A3,12 - A4,13 - A4,11 - A4,20 - A4,4 <= 0
A4,12 - A5,13 - A5,11 - A5,20 - A5,4 <= 0
A5,12 - A6,13 - A6,11 - A6,20 - A6,4 <= 0
A6,12 - A7,13 - A7,11 - A7,20 - A7,4 <= 0
A7,12 - A8,13 - A8,11 - A8,20 - A8,4 <= 0
A1,13 - A2,14 - A2,12 - A2,21 - A2,5 <= 0
A2,13 - A3,14 - A3,12 - A3,21 - A3,5 <= 0
A3,13 - A4,14 - A4,12 - A4,21 - A4,5 <= 0
A4,13 - A5,14 - A5,12 - A5,21 - A5,5 <= 0
A5,13 - A6,14 - A6,12 - A6,21 - A6,5 <= 0
A6,13 - A7,14 - A7,12 - A7,21 - A7,5 <= 0
A7,13 - A8,14 - A8,12 - A8,21 - A8,5 <= 0
A1,14 - A2,15 - A2,13 - A2,22 - A2,6 <= 0
A2,14 - A3,15 - A3,13 - A3,22 - A3,6 <= 0
A3,14 - A4,15 - A4,13 - A4,22 - A4,6 <= 0
A4,14 - A5,15 - A5,13 - A5,22 - A5,6 <= 0
A5,14 - A6,15 - A6,13 - A6,22 - A6,6 <= 0
A6,14 - A7,15 - A7,13 - A7,22 - A7,6 <= 0
A7,14 - A8,15 - A8,13 - A8,22 - A8,6 <= 0
A1,15 - A2,16 - A2,14 - A2,23 - A2,7 <= 0
A2,15 - A3,16 - A3,14 - A3,23 - A3,7 <= 0
A3,15 - A4,16 - A4,14 - A4,23 - A4,7 <= 0
A4,15 - A5,16 - A5,14 - A5,23 - A5,7 <= 0
A5,15 - A6,16 - A6,14 - A6,23 - A6,7 <= 0
A6,15 - A7,16 - A7,14 - A7,23 - A7,7 <= 0
A7,15 - A8,16 - A8,14 - A8,23 - A8,7 <= 0
A1,18 - A2,19 - A2,17 - A2,26 - A2,10 <= 0
A2,18 - A3,19 - A3,17 - A3,26 - A3,10 <= 0
A3,18 - A4,19 - A4,17 - A4,26 - A4,10 <= 0
A4,18 - A5,19 - A5,17 - A5,26 - A5,10 <= 0
A5,18 - A6,19 - A6,17 - A6,26 - A6,10 <= 0
A6,18 - A7,19 - A7,17 - A7,26 - A7,10 <= 0
A7,18 - A8,19 - A8,17 - A8,26 - A8,10 <= 0
A1,19 - A2,20 - A2,18 - A2,27 - A2,11 <= 0
A2,19 - A3,20 - A3,18 - A3,27 - A3,11 <= 0
A3,19 - A4,20 - A4,18 - A4,27 - A4,11 <= 0
A4,19 - A5,20 - A5,18 - A5,27 - A5,11 <= 0
A5,19 - A6,20 - A6,18 - A6,27 - A6,11 <= 0
A6,19 - A7,20 - A7,18 - A7,27 - A7,11 <= 0
A7,19 - A8,20 - A8,18 - A8,27 - A8,11 <= 0
A1,20 - A2,21 - A2,19 - A2,28 - A2,12 <= 0
A2,20 - A3,21 - A3,19 - A3,28 - A3,12 <= 0
A3,20 - A4,21 - A4,19 - A4,28 - A4,12 <= 0
A4,20 - A5,21 - A5,19 - A5,28 - A5,12 <= 0
A5,20 - A6,21 - A6,19 - A6,28 - A6,12 <= 0
A6,20 - A7,21 - A7,19 - A7,28 - A7,12 <= 0
A7,20 - A8,21 - A8,19 - A8,28 - A8,12 <= 0
A1,21 - A2,22 - A2,20 - A2,29 - A2,13 <= 0
A2,21 - A3,22 - A3,20 - A3,29 - A3,13 <= 0
A3,21 - A4,22 - A4,20 - A4,29 - A4,13 <= 0
A4,21 - A5,22 - A5,20 - A5,29 - A5,13 <= 0
A5,21 - A6,22 - A6,20 - A6,29 - A6,13 <= 0
A6,21 - A7,22 - A7,20 - A7,29 - A7,13 <= 0
A7,21 - A8,22 - A8,20 - A8,29 - A8,13 <= 0
A1,22 - A2,23 - A2,21 - A2,30 - A2,14 <= 0
A2,22 - A3,23 - A3,21 - A3,30 - A3,14 <= 0
A3,22 - A4,23 - A4,21 - A4,30 - A4,14 <= 0
A4,22 - A5,23 - A5,21 - A5,30 - A5,14 <= 0
A5,22 - A6,23 - A6,21 - A6,30 - A6,14 <= 0
A6,22 - A7,23 - A7,21 - A7,30 - A7,14 <= 0
A7,22 - A8,23 - A8,21 - A8,30 - A8,14 <= 0
A1,23 - A2,24 - A2,22 - A2,31 - A2,15 <= 0
A2,23 - A3,24 - A3,22 - A3,31 - A3,15 <= 0
A3,23 - A4,24 - A4,22 - A4,31 - A4,15 <= 0
A4,23 - A5,24 - A5,22 - A5,31 - A5,15 <= 0
A5,23 - A6,24 - A6,22 - A6,31 - A6,15 <= 0
A6,23 - A7,24 - A7,22 - A7,31 - A7,15 <= 0
A7,23 - A8,24 - A8,22 - A8,31 - A8,15 <= 0
A1,26 - A2,27 - A2,25 - A2,34 - A2,18 <= 0
A2,26 - A3,27 - A3,25 - A3,34 - A3,18 <= 0
A3,26 - A4,27 - A4,25 - A4,34 - A4,18 <= 0
A4,26 - A5,27 - A5,25 - A5,34 - A5,18 <= 0
A5,26 - A6,27 - A6,25 - A6,34 - A6,18 <= 0
A6,26 - A7,27 - A7,25 - A7,34 - A7,18 <= 0
A7,26 - A8,27 - A8,25 - A8,34 - A8,18 <= 0
A1,27 - A2,28 - A2,26 - A2,35 - A2,19 <= 0
A2,27 - A3,28 - A3,26 - A3,35 - A3,19 <= 0
A3,27 - A4,28 - A4,26 - A4,35 - A4,19 <= 0
A4,27 - A5,28 - A5,26 - A5,35 - A5,19 <= 0
A5,27 - A6,28 - A6,26 - A6,35 - A6,19 <= 0
A6,27 - A7,28 - A7,26 - A7,35 - A7,19 <= 0
A7,27 - A8,28 - A8,26 - A8,35 - A8,19 <= 0
A1,28 - A2,29 - A2,27 - A2,36 - A2,20 <= 0
A2,28 - A3,29 - A3,27 - A3,36 - A3,20 <= 0
A3,28 - A4,29 - A4,27 - A4,36 - A4,20 <= 0
A4,28 - A5,29 - A5,27 - A5,36 - A5,20 <= 0
A5,28 - A6,29 - A6,27 - A6,36 - A6,20 <= 0
A6,28 - A7,29 - A7,27 - A7,36 - A7,20 <= 0
A7,28 - A8,29 - A8,27 - A8,36 - A8,20 <= 0
A1,29 - A2,30 - A2,28 - A2,37 - A2,21 <= 0
A2,29 - A3,30 - A3,28 - A3,37 - A3,21 <= 0
A3,29 - A4,30 - A4,28 - A4,37 - A4,21 <= 0
A4,29 - A5,30 - A5,28 - A5,37 - A5,21 <= 0
A5,29 - A6,30 - A6,28 - A6,37 - A6,21 <= 0
A6,29 - A7,30 - A7,28 - A7,37 - A7,21 <= 0
A7,29 - A8,30 - A8,28 - A8,37 - A8,21 <= 0
A1,30 - A2,31 - A2,29 - A2,38 - A2,22 <= 0
A2,30 - A3,31 - A3,29 - A3,38 - A3,22 <= 0
A3,30 - A4,31 - A4,29 - A4,38 - A4,22 <= 0
A4,30 - A5,31 - A5,29 - A5,38 - A5,22 <= 0
A5,30 - A6,31 - A6,29 - A6,38 - A6,22 <= 0
A6,30 - A7,31 - A7,29 - A7,38 - A7,22 <= 0
A7,30 - A8,31 - A8,29 - A8,38 - A8,22 <= 0
A1,31 - A2,32 - A2,30 - A2,39 - A2,23 <= 0
A2,31 - A3,32 - A3,30 - A3,39 - A3,23 <= 0
A3,31 - A4,32 - A4,30 - A4,39 - A4,23 <= 0
A4,31 - A5,32 - A5,30 - A5,39 - A5,23 <= 0
A5,31 - A6,32 - A6,30 - A6,39 - A6,23 <= 0
A6,31 - A7,32 - A7,30 - A7,39 - A7,23 <= 0
A7,31 - A8,32 - A8,30 - A8,39 - A8,23 <= 0
A1,34 - A2,35 - A2,33 - A2,42 - A2,26 <= 0
A2,34 - A3,35 - A3,33 - A3,42 - A3,26 <= 0
A3,34 - A4,35 - A4,33 - A4,42 - A4,26 <= 0
A4,34 - A5,35 - A5,33 - A5,42 - A5,26 <= 0
A5,34 - A6,35 - A6,33 - A6,42 - A6,26 <= 0
A6,34 - A7,35 - A7,33 - A7,42 - A7,26 <= 0
A7,34 - A8,35 - A8,33 - A8,42 - A8,26 <= 0
A1,35 - A2,36 - A2,34 - A2,43 - A2,27 <= 0
A2,35 - A3,36 - A3,34 - A3,43 - A3,27 <= 0
A3,35 - A4,36 - A4,34 - A4,43 - A4,27 <= 0
A4,35 - A5,36 - A5,34 - A5,43 - A5,27 <= 0
A5,35 - A6,36 - A6,34 - A6,43 - A6,27 <= 0
A6,35 - A7,36 - A7,34 - A7,43 - A7,27 <= 0
A7,35 - A8,36 - A8,34 - A8,43 - A8,27 <= 0
A1,36 - A2,37 - A2,35 - A2,44 - A2,28 <= 0
A2,36 - A3,37 - A3,35 - A3,44 - A3,28 <= 0
A3,36 - A4,37 - A4,35 - A4,44 - A4,28 <= 0
A4,36 - A5,37 - A5,35 - A5,44 - A5,28 <= 0
A5,36 - A6,37 - A6,35 - A6,44 - A6,28 <= 0
A6,36 - A7,37 - A7,35 - A7,44 - A7,28 <= 0
A7,36 - A8,37 - A8,35 - A8,44 - A8,28 <= 0
A1,37 - A2,38 - A2,36 - A2,45 - A2,29 <= 0
A2,37 - A3,38 - A3,36 - A3,45 - A3,29 <= 0
A3,37 - A4,38 - A4,36 - A4,45 - A4,29 <= 0
A4,37 - A5,38 - A5,36 - A5,45 - A5,29 <= 0
A5,37 - A6,38 - A6,36 - A6,45 - A6,29 <= 0
A6,37 - A7,38 - A7,36 - A7,45 - A7,29 <= 0
A7,37 - A8,38 - A8,36 - A8,45 - A8,29 <= 0
A1,38 - A2,39 - A2,37 - A2,46 - A2,30 <= 0
A2,38 - A3,39 - A3,37 - A3,46 - A3,30 <= 0
A3,38 - A4,39 - A4,37 - A4,46 - A4,30 <= 0
A4,38 - A5,39 - A5,37 - A5,46 - A5,30 <= 0
A5,38 - A6,39 - A6,37 - A6,46 - A6,30 <= 0
A6,38 - A7,39 - A7,37 - A7,46 - A7,30 <= 0
A7,38 - A8,39 - A8,37 - A8,46 - A8,30 <= 0
A1,39 - A2,40 - A2,38 - A2,47 - A2,31 <= 0
A2,39 - A3,40 - A3,38 - A3,47 - A3,31 <= 0
A3,39 - A4,40 - A4,38 - A4,47 - A4,31 <= 0
A4,39 - A5,40 - A5,38 - A5,47 - A5,31 <= 0
A5,39 - A6,40 - A6,38 - A6,47 - A6,31 <= 0
A6,39 - A7,40 - A7,38 - A7,47 - A7,31 <= 0
A7,39 - A8,40 - A8,38 - A8,47 - A8,31 <= 0
A1,42 - A2,43 - A2,41 - A2,50 - A2,34 <= 0
A2,42 - A3,43 - A3,41 - A3,50 - A3,34 <= 0
A3,42 - A4,43 - A4,41 - A4,50 - A4,34 <= 0
A4,42 - A5,43 - A5,41 - A5,50 - A5,34 <= 0
A5,42 - A6,43 - A6,41 - A6,50 - A6,34 <= 0
A6,42 - A7,43 - A7,41 - A7,50 - A7,34 <= 0
A7,42 - A8,43 - A8,41 - A8,50 - A8,34 <= 0
A1,43 - A2,44 - A2,42 - A2,51 - A2,35 <= 0
A2,43 - A3,44 - A3,42 - A3,51 - A3,35 <= 0
A3,43 - A4,44 - A4,42 - A4,51 - A4,35 <= 0
A4,43 - A5,44 - A5,42 - A5,51 - A5,35 <= 0
A5,43 - A6,44 - A6,42 - A6,51 - A6,35 <= 0
A6,43 - A7,44 - A7,42 - A7,51 - A7,35 <= 0
A7,43 - A8,44 - A8,42 - A8,51 - A8,35 <= 0
A1,44 - A2,45 - A2,43 - A2,52 - A2,36 <= 0
A2,44 - A3,45 - A3,43 - A3,52 - A3,36 <= 0
A3,44 - A4,45 - A4,43 - A4,52 - A4,36 <= 0
A4,44 - A5,45 - A5,43 - A5,52 - A5,36 <= 0
A5,44 - A6,45 - A6,43 - A6,52 - A6,36 <= 0
A6,44 - A7,45 - A7,43 - A7,52 - A7,36 <= 0
A7,44 - A8,45 - A8,43 - A8,52 - A8,36 <= 0
A1,45 - A2,46 - A2,44 - A2,53 - A2,37 <= 0
A2,45 - A3,46 - A3,44 - A3,53 - A3,37 <= 0
A3,45 - A4,46 - A4,44 - A4,53 - A4,37 <= 0
A4,45 - A5,46 - A5,44 - A5,53 - A5,37 <= 0
A5,45 - A6,46 - A6,44 - A6,53 - A6,37 <= 0
A6,45 - A7,46 - A7,44 - A7,53 - A7,37 <= 0
A7,45 - A8,46 - A8,44 - A8,53 - A8,37 <= 0
A1,46 - A2,47 - A2,45 - A2,54 - A2,38 <= 0
A2,46 - A3,47 - A3,45 - A3,54 - A3,38 <= 0
A3,46 - A4,47 - A4,45 - A4,54 - A4,38 <= 0
A4,46 - A5,47 - A5,45 - A5,54 - A5,38 <= 0
A5,46 - A6,47 - A6,45 - A6,54 - A6,38 <= 0
A6,46 - A7,47 - A7,45 - A7,54 - A7,38 <= 0
A7,46 - A8,47 - A8,45 - A8,54 - A8,38 <= 0
A1,47 - A2,48 - A2,46 - A2,55 - A2,39 <= 0
A2,47 - A3,48 - A3,46 - A3,55 - A3,39 <= 0
A3,47 - A4,48 - A4,46 - A4,55 - A4,39 <= 0
A4,47 - A5,48 - A5,46 - A5,55 - A5,39 <= 0
A5,47 - A6,48 - A6,46 - A6,55 - A6,39 <= 0
A6,47 - A7,48 - A7,46 - A7,55 - A7,39 <= 0
A7,47 - A8,48 - A8,46 - A8,55 - A8,39 <= 0
A1,50 - A2,51 - A2,49 - A2,58 - A2,42 <= 0
A2,50 - A3,51 - A3,49 - A3,58 - A3,42 <= 0
A3,50 - A4,51 - A4,49 - A4,58 - A4,42 <= 0
A4,50 - A5,51 - A5,49 - A5,58 - A5,42 <= 0
A5,50 - A6,51 - A6,49 - A6,58 - A6,42 <= 0
A6,50 - A7,51 - A7,49 - A7,58 - A7,42 <= 0
A7,50 - A8,51 - A8,49 - A8,58 - A8,42 <= 0
A1,51 - A2,52 - A2,50 - A2,59 - A2,43 <= 0
A2,51 - A3,52 - A3,50 - A3,59 - A3,43 <= 0
A3,51 - A4,52 - A4,50 - A4,59 - A4,43 <= 0
A4,51 - A5,52 - A5,50 - A5,59 - A5,43 <= 0
A5,51 - A6,52 - A6,50 - A6,59 - A6,43 <= 0
A6,51 - A7,52 - A7,50 - A7,59 - A7,43 <= 0
A7,51 - A8,52 - A8,50 - A8,59 - A8,43 <= 0
A1,52 - A2,53 - A2,51 - A2,60 - A2,44 <= 0
A2,52 - A3,53 - A3,51 - A3,60 - A3,44 <= 0
A3,52 - A4,53 - A4,51 - A4,60 - A4,44 <= 0
A4,52 - A5,53 - A5,51 - A5,60 - A5,44 <= 0
A5,52 - A6,53 - A6,51 - A6,60 - A6,44 <= 0
A6,52 - A7,53 - A7,51 - A7,60 - A7,44 <= 0
A7,52 - A8,53 - A8,51 - A8,60 - A8,44 <= 0
A1,53 - A2,54 - A2,52 - A2,61 - A2,45 <= 0
A2,53 - A3,54 - A3,52 - A3,61 - A3,45 <= 0
A3,53 - A4,54 - A4,52 - A4,61 - A4,45 <= 0
A4,53 - A5,54 - A5,52 - A5,61 - A5,45 <= 0
A5,53 - A6,54 - A6,52 - A6,61 - A6,45 <= 0
A6,53 - A7,54 - A7,52 - A7,61 - A7,45 <= 0
A7,53 - A8,54 - A8,52 - A8,61 - A8,45 <= 0
A1,54 - A2,55 - A2,53 - A2,62 - A2,46 <= 0
A2,54 - A3,55 - A3,53 - A3,62 - A3,46 <= 0
A3,54 - A4,55 - A4,53 - A4,62 - A4,46 <= 0
A4,54 - A5,55 - A5,53 - A5,62 - A5,46 <= 0
A5,54 - A6,55 - A6,53 - A6,62 - A6,46 <= 0
A6,54 - A7,55 - A7,53 - A7,62 - A7,46 <= 0
A7,54 - A8,55 - A8,53 - A8,62 - A8,46 <= 0
A1,55 - A2,56 - A2,54 - A2,63 - A2,47 <= 0
A2,55 - A3,56 - A3,54 - A3,63 - A3,47 <= 0
A3,55 - A4,56 - A4,54 - A4,63 - A4,47 <= 0
A4,55 - A5,56 - A5,54 - A5,63 - A5,47 <= 0
A5,55 - A6,56 - A6,54 - A6,63 - A6,47 <= 0
A6,55 - A7,56 - A7,54 - A7,63 - A7,47 <= 0
A7,55 - A8,56 - A8,54 - A8,63 - A8,47 <= 0
A1,2 - A2,3 - A2,1 - A2,10  <= 0
A2,2 - A3,3 - A3,1 - A3,10  <= 0
A3,2 - A4,3 - A4,1 - A4,10  <= 0
A4,2 - A5,3 - A5,1 - A5,10  <= 0
A5,2 - A6,3 - A6,1 - A6,10  <= 0
A6,2 - A7,3 - A7,1 - A7,10  <= 0
A7,2 - A8,3 - A8,1 - A8,10  <= 0
A1,3 - A2,4 - A2,2 - A2,11  <= 0
A2,3 - A3,4 - A3,2 - A3,11  <= 0
A3,3 - A4,4 - A4,2 - A4,11  <= 0
A4,3 - A5,4 - A5,2 - A5,11  <= 0
A5,3 - A6,4 - A6,2 - A6,11  <= 0
A6,3 - A7,4 - A7,2 - A7,11  <= 0
A7,3 - A8,4 - A8,2 - A8,11  <= 0
A1,4 - A2,5 - A2,3 - A2,12  <= 0
A2,4 - A3,5 - A3,3 - A3,12  <= 0
A3,4 - A4,5 - A4,3 - A4,12  <= 0
A4,4 - A5,5 - A5,3 - A5,12  <= 0
A5,4 - A6,5 - A6,3 - A6,12  <= 0
A6,4 - A7,5 - A7,3 - A7,12  <= 0
A7,4 - A8,5 - A8,3 - A8,12  <= 0
A1,5 - A2,6 - A2,4 - A2,13  <= 0
A2,5 - A3,6 - A3,4 - A3,13  <= 0
A3,5 - A4,6 - A4,4 - A4,13  <= 0
A4,5 - A5,6 - A5,4 - A5,13  <= 0
A5,5 - A6,6 - A6,4 - A6,13  <= 0
A6,5 - A7,6 - A7,4 - A7,13  <= 0
A7,5 - A8,6 - A8,4 - A8,13  <= 0
A1,6 - A2,7 - A2,5 - A2,14  <= 0
A2,6 - A3,7 - A3,5 - A3,14  <= 0
A3,6 - A4,7 - A4,5 - A4,14  <= 0
A4,6 - A5,7 - A5,5 - A5,14  <= 0
A5,6 - A6,7 - A6,5 - A6,14  <= 0
A6,6 - A7,7 - A7,5 - A7,14  <= 0
A7,6 - A8,7 - A8,5 - A8,14  <= 0
A1,7 - A2,8 - A2,6 - A2,15  <= 0
A2,7 - A3,8 - A3,6 - A3,15  <= 0
A3,7 - A4,8 - A4,6 - A4,15  <= 0
A4,7 - A5,8 - A5,6 - A5,15  <= 0
A5,7 - A6,8 - A6,6 - A6,15  <= 0
A6,7 - A7,8 - A7,6 - A7,15  <= 0
A7,7 - A8,8 - A8,6 - A8,15  <= 0
A1,58 - A2,59 - A2,57 - A2,50  <= 0
A2,58 - A3,59 - A3,57 - A3,50  <= 0
A3,58 - A4,59 - A4,57 - A4,50  <= 0
A4,58 - A5,59 - A5,57 - A5,50  <= 0
A5,58 - A6,59 - A6,57 - A6,50  <= 0
A6,58 - A7,59 - A7,57 - A7,50  <= 0
A7,58 - A8,59 - A8,57 - A8,50  <= 0
A1,59 - A2,60 - A2,58 - A2,51  <= 0
A2,59 - A3,60 - A3,58 - A3,51  <= 0
A3,59 - A4,60 - A4,58 - A4,51  <= 0
A4,59 - A5,60 - A5,58 - A5,51  <= 0
A5,59 - A6,60 - A6,58 - A6,51  <= 0
A6,59 - A7,60 - A7,58 - A7,51  <= 0
A7,59 - A8,60 - A8,58 - A8,51  <= 0
A1,60 - A2,61 - A2,59 - A2,52  <= 0
A2,60 - A3,61 - A3,59 - A3,52  <= 0
A3,60 - A4,61 - A4,59 - A4,52  <= 0
A4,60 - A5,61 - A5,59 - A5,52  <= 0
A5,60 - A6,61 - A6,59 - A6,52  <= 0
A6,60 - A7,61 - A7,59 - A7,52  <= 0
A7,60 - A8,61 - A8,59 - A8,52  <= 0
A1,61 - A2,62 - A2,60 - A2,53  <= 0
A2,61 - A3,62 - A3,60 - A3,53  <= 0
A3,61 - A4,62 - A4,60 - A4,53  <= 0
A4,61 - A5,62 - A5,60 - A5,53  <= 0
A5,61 - A6,62 - A6,60 - A6,53  <= 0
A6,61 - A7,62 - A7,60 - A7,53  <= 0
A7,61 - A8,62 - A8,60 - A8,53  <= 0
A1,62 - A2,63 - A2,61 - A2,54  <= 0
A2,62 - A3,63 - A3,61 - A3,54  <= 0
A3,62 - A4,63 - A4,61 - A4,54  <= 0
A4,62 - A5,63 - A5,61 - A5,54  <= 0
A5,62 - A6,63 - A6,61 - A6,54  <= 0
A6,62 - A7,63 - A7,61 - A7,54  <= 0
A7,62 - A8,63 - A8,61 - A8,54  <= 0
A1,63 - A2,64 - A2,62 - A2,55  <= 0
A2,63 - A3,64 - A3,62 - A3,55  <= 0
A3,63 - A4,64 - A4,62 - A4,55  <= 0
A4,63 - A5,64 - A5,62 - A5,55  <= 0
A5,63 - A6,64 - A6,62 - A6,55  <= 0
A6,63 - A7,64 - A7,62 - A7,55  <= 0
A7,63 - A8,64 - A8,62 - A8,55  <= 0
A1,9 - A2,10 - A2,17 - A2,1  <= 0
A2,9 - A3,10 - A3,17 - A3,1  <= 0
A3,9 - A4,10 - A4,17 - A4,1  <= 0
A4,9 - A5,10 - A5,17 - A5,1  <= 0
A5,9 - A6,10 - A6,17 - A6,1  <= 0
A6,9 - A7,10 - A7,17 - A7,1  <= 0
A7,9 - A8,10 - A8,17 - A8,1  <= 0
A1,17 - A2,18 - A2,25 - A2,9  <= 0
A2,17 - A3,18 - A3,25 - A3,9  <= 0
A3,17 - A4,18 - A4,25 - A4,9  <= 0
A4,17 - A5,18 - A5,25 - A5,9  <= 0
A5,17 - A6,18 - A6,25 - A6,9  <= 0
A6,17 - A7,18 - A7,25 - A7,9  <= 0
A7,17 - A8,18 - A8,25 - A8,9  <= 0
A1,25 - A2,26 - A2,33 - A2,17  <= 0
A2,25 - A3,26 - A3,33 - A3,17  <= 0
A3,25 - A4,26 - A4,33 - A4,17  <= 0
A4,25 - A5,26 - A5,33 - A5,17  <= 0
A5,25 - A6,26 - A6,33 - A6,17  <= 0
A6,25 - A7,26 - A7,33 - A7,17  <= 0
A7,25 - A8,26 - A8,33 - A8,17  <= 0
A1,33 - A2,34 - A2,41 - A2,25  <= 0
A2,33 - A3,34 - A3,41 - A3,25  <= 0
A3,33 - A4,34 - A4,41 - A4,25  <= 0
A4,33 - A5,34 - A5,41 - A5,25  <= 0
A5,33 - A6,34 - A6,41 - A6,25  <= 0
A6,33 - A7,34 - A7,41 - A7,25  <= 0
A7,33 - A8,34 - A8,41 - A8,25  <= 0
A1,41 - A2,42 - A2,49 - A2,33  <= 0
A2,41 - A3,42 - A3,49 - A3,33  <= 0
A3,41 - A4,42 - A4,49 - A4,33  <= 0
A4,41 - A5,42 - A5,49 - A5,33  <= 0
A5,41 - A6,42 - A6,49 - A6,33  <= 0
A6,41 - A7,42 - A7,49 - A7,33  <= 0
A7,41 - A8,42 - A8,49 - A8,33  <= 0
A1,49 - A2,50 - A2,57 - A2,41  <= 0
A2,49 - A3,50 - A3,57 - A3,41  <= 0
A3,49 - A4,50 - A4,57 - A4,41  <= 0
A4,49 - A5,50 - A5,57 - A5,41  <= 0
A5,49 - A6,50 - A6,57 - A6,41  <= 0
A6,49 - A7,50 - A7,57 - A7,41  <= 0
A7,49 - A8,50 - A8,57 - A8,41  <= 0
A1,16 - A2,15 - A2,24 - A2,8  <= 0
A2,16 - A3,15 - A3,24 - A3,8  <= 0
A3,16 - A4,15 - A4,24 - A4,8  <= 0
A4,16 - A5,15 - A5,24 - A5,8  <= 0
A5,16 - A6,15 - A6,24 - A6,8  <= 0
A6,16 - A7,15 - A7,24 - A7,8  <= 0
A7,16 - A8,15 - A8,24 - A8,8  <= 0
A1,24 - A2,23 - A2,32 - A2,16  <= 0
A2,24 - A3,23 - A3,32 - A3,16  <= 0
A3,24 - A4,23 - A4,32 - A4,16  <= 0
A4,24 - A5,23 - A5,32 - A5,16  <= 0
A5,24 - A6,23 - A6,32 - A6,16  <= 0
A6,24 - A7,23 - A7,32 - A7,16  <= 0
A7,24 - A8,23 - A8,32 - A8,16  <= 0
A1,32 - A2,31 - A2,40 - A2,24  <= 0
A2,32 - A3,31 - A3,40 - A3,24  <= 0
A3,32 - A4,31 - A4,40 - A4,24  <= 0
A4,32 - A5,31 - A5,40 - A5,24  <= 0
A5,32 - A6,31 - A6,40 - A6,24  <= 0
A6,32 - A7,31 - A7,40 - A7,24  <= 0
A7,32 - A8,31 - A8,40 - A8,24  <= 0
A1,40 - A2,39 - A2,48 - A2,32  <= 0
A2,40 - A3,39 - A3,48 - A3,32  <= 0
A3,40 - A4,39 - A4,48 - A4,32  <= 0
A4,40 - A5,39 - A5,48 - A5,32  <= 0
A5,40 - A6,39 - A6,48 - A6,32  <= 0
A6,40 - A7,39 - A7,48 - A7,32  <= 0
A7,40 - A8,39 - A8,48 - A8,32  <= 0
A1,48 - A2,47 - A2,56 - A2,40  <= 0
A2,48 - A3,47 - A3,56 - A3,40  <= 0
A3,48 - A4,47 - A4,56 - A4,40  <= 0
A4,48 - A5,47 - A5,56 - A5,40  <= 0
A5,48 - A6,47 - A6,56 - A6,40  <= 0
A6,48 - A7,47 - A7,56 - A7,40  <= 0
A7,48 - A8,47 - A8,56 - A8,40  <= 0
A1,56 - A2,55 - A2,64 - A2,48  <= 0
A2,56 - A3,55 - A3,64 - A3,48  <= 0
A3,56 - A4,55 - A4,64 - A4,48  <= 0
A4,56 - A5,55 - A5,64 - A5,48  <= 0
A5,56 - A6,55 - A6,64 - A6,48  <= 0
A6,56 - A7,55 - A7,64 - A7,48  <= 0
A7,56 - A8,55 - A8,64 - A8,48  <= 0
A1,1 - A2,2 - A2,9  <= 0
A1,8 - A2,7 - A2,16  <= 0
A1,57 - A2,58 - A2,49  <= 0
A1,64 - A2,63 - A2,56  <= 0
A2,1 - A3,2 - A3,9  <= 0
A2,8 - A3,7 - A3,16  <= 0
A2,57 - A3,58 - A3,49  <= 0
A2,64 - A3,63 - A3,56  <= 0
A3,1 - A4,2 - A4,9  <= 0
A3,8 - A4,7 - A4,16  <= 0
A3,57 - A4,58 - A4,49  <= 0
A3,64 - A4,63 - A4,56  <= 0
A4,1 - A5,2 - A5,9  <= 0
A4,8 - A5,7 - A5,16  <= 0
A4,57 - A5,58 - A5,49  <= 0
A4,64 - A5,63 - A5,56  <= 0
A5,1 - A6,2 - A6,9  <= 0
A5,8 - A6,7 - A6,16  <= 0
A5,57 - A6,58 - A6,49  <= 0
A5,64 - A6,63 - A6,56  <= 0
A6,1 - A7,2 - A7,9  <= 0
A6,8 - A7,7 - A7,16  <= 0
A6,57 - A7,58 - A7,49  <= 0
A6,64 - A7,63 - A7,56  <= 0
A7,1 - A8,2 - A8,9  <= 0
A7,8 - A8,7 - A8,16  <= 0
A7,57 - A8,58 - A8,49  <= 0
A7,64 - A8,63 - A8,56  <= 0
+ A1,1 + A3,1 + A4,1 + A5,1 + A7,1 + A8,1  - I1 = 0 
+ A1,2 + A3,2 + A4,2 + A5,2 + A7,2 + A8,2  - I2 = 0 
+ A1,3 + A3,3 + A4,3 + A5,3 + A7,3 + A8,3  - I3 = 0 
+ A1,4 + A3,4 + A4,4 + A5,4 + A7,4 + A8,4  - I4 = 0 
+ A1,5 + A3,5 + A4,5 + A5,5 + A7,5 + A8,5  - I5 = 0 
+ A1,6 + A3,6 + A4,6 + A5,6 + A7,6 + A8,6  - I6 = 0 
+ A1,7 + A3,7 + A4,7 + A5,7 + A7,7 + A8,7  - I7 = 0 
+ A1,8 + A3,8 + A4,8 + A5,8 + A7,8 + A8,8  - I8 = 0 
+ A1,9 + A3,9 + A4,9 + A5,9 + A7,9 + A8,9  - I9 = 0 
+ A1,10 + A3,10 + A4,10 + A5,10 + A7,10 + A8,10  - I10 = 0 
+ A1,11 + A3,11 + A4,11 + A5,11 + A7,11 + A8,11  - I11 = 0 
+ A1,12 + A3,12 + A4,12 + A5,12 + A7,12 + A8,12  - I12 = 0 
+ A1,13 + A3,13 + A4,13 + A5,13 + A7,13 + A8,13  - I13 = 0 
+ A1,14 + A3,14 + A4,14 + A5,14 + A7,14 + A8,14  - I14 = 0 
+ A1,15 + A3,15 + A4,15 + A5,15 + A7,15 + A8,15  - I15 = 0 
+ A1,16 + A3,16 + A4,16 + A5,16 + A7,16 + A8,16  - I16 = 0 
+ A1,17 + A3,17 + A4,17 + A5,17 + A7,17 + A8,17  - I17 = 0 
+ A1,18 + A3,18 + A4,18 + A5,18 + A7,18 + A8,18  - I18 = 0 
+ A1,19 + A3,19 + A4,19 + A5,19 + A7,19 + A8,19  - I19 = 0 
+ A1,20 + A3,20 + A4,20 + A5,20 + A7,20 + A8,20  - I20 = 0 
+ A1,21 + A3,21 + A4,21 + A5,21 + A7,21 + A8,21  - I21 = 0 
+ A1,22 + A3,22 + A4,22 + A5,22 + A7,22 + A8,22  - I22 = 0 
+ A1,23 + A3,23 + A4,23 + A5,23 + A7,23 + A8,23  - I23 = 0 
+ A1,24 + A3,24 + A4,24 + A5,24 + A7,24 + A8,24  - I24 = 0 
+ A1,25 + A3,25 + A4,25 + A5,25 + A7,25 + A8,25  - I25 = 0 
+ A1,26 + A3,26 + A4,26 + A5,26 + A7,26 + A8,26  - I26 = 0 
+ A1,27 + A3,27 + A4,27 + A5,27 + A7,27 + A8,27  - I27 = 0 
+ A1,28 + A3,28 + A4,28 + A5,28 + A7,28 + A8,28  - I28 = 0 
+ A1,29 + A3,29 + A4,29 + A5,29 + A7,29 + A8,29  - I29 = 0 
+ A1,30 + A3,30 + A4,30 + A5,30 + A7,30 + A8,30  - I30 = 0 
+ A1,31 + A3,31 + A4,31 + A5,31 + A7,31 + A8,31  - I31 = 0 
+ A1,32 + A3,32 + A4,32 + A5,32 + A7,32 + A8,32  - I32 = 0 
+ A1,33 + A3,33 + A4,33 + A5,33 + A7,33 + A8,33  - I33 = 0 
+ A1,34 + A3,34 + A4,34 + A5,34 + A7,34 + A8,34  - I34 = 0 
+ A1,35 + A3,35 + A4,35 + A5,35 + A7,35 + A8,35  - I35 = 0 
+ A1,36 + A3,36 + A4,36 + A5,36 + A7,36 + A8,36  - I36 = 0 
+ A1,37 + A3,37 + A4,37 + A5,37 + A7,37 + A8,37  - I37 = 0 
+ A1,38 + A3,38 + A4,38 + A5,38 + A7,38 + A8,38  - I38 = 0 
+ A1,39 + A3,39 + A4,39 + A5,39 + A7,39 + A8,39  - I39 = 0 
+ A1,40 + A3,40 + A4,40 + A5,40 + A7,40 + A8,40  - I40 = 0 
+ A1,41 + A3,41 + A4,41 + A5,41 + A7,41 + A8,41  - I41 = 0 
+ A1,42 + A3,42 + A4,42 + A5,42 + A7,42 + A8,42  - I42 = 0 
+ A1,43 + A3,43 + A4,43 + A5,43 + A7,43 + A8,43  - I43 = 0 
+ A1,44 + A3,44 + A4,44 + A5,44 + A7,44 + A8,44  - I44 = 0 
+ A1,45 + A3,45 + A4,45 + A5,45 + A7,45 + A8,45  - I45 = 0 
+ A1,46 + A3,46 + A4,46 + A5,46 + A7,46 + A8,46  - I46 = 0 
+ A1,47 + A3,47 + A4,47 + A5,47 + A7,47 + A8,47  - I47 = 0 
+ A1,48 + A3,48 + A4,48 + A5,48 + A7,48 + A8,48  - I48 = 0 
+ A1,49 + A3,49 + A4,49 + A5,49 + A7,49 + A8,49  - I49 = 0 
+ A1,50 + A3,50 + A4,50 + A5,50 + A7,50 + A8,50  - I50 = 0 
+ A1,51 + A3,51 + A4,51 + A5,51 + A7,51 + A8,51  - I51 = 0 
+ A1,52 + A3,52 + A4,52 + A5,52 + A7,52 + A8,52  - I52 = 0 
+ A1,53 + A3,53 + A4,53 + A5,53 + A7,53 + A8,53  - I53 = 0 
+ A1,54 + A3,54 + A4,54 + A5,54 + A7,54 + A8,54  - I54 = 0 
+ A1,55 + A3,55 + A4,55 + A5,55 + A7,55 + A8,55  - I55 = 0 
+ A1,56 + A3,56 + A4,56 + A5,56 + A7,56 + A8,56  - I56 = 0 
+ A1,57 + A3,57 + A4,57 + A5,57 + A7,57 + A8,57  - I57 = 0 
+ A1,58 + A3,58 + A4,58 + A5,58 + A7,58 + A8,58  - I58 = 0 
+ A1,59 + A3,59 + A4,59 + A5,59 + A7,59 + A8,59  - I59 = 0 
+ A1,60 + A3,60 + A4,60 + A5,60 + A7,60 + A8,60  - I60 = 0 
+ A1,61 + A3,61 + A4,61 + A5,61 + A7,61 + A8,61  - I61 = 0 
+ A1,62 + A3,62 + A4,62 + A5,62 + A7,62 + A8,62  - I62 = 0 
+ A1,63 + A3,63 + A4,63 + A5,63 + A7,63 + A8,63  - I63 = 0 
+ A1,64 + A3,64 + A4,64 + A5,64 + A7,64 + A8,64  - I64 = 0 
 

I1 + I2 - 2 C1,2 >= 0
I1 + I9 - 2 C1,9 >= 0
I2 + I3 - 2 C2,3 >= 0
I2 + I10 - 2 C2,10 >= 0
I3 + I4 - 2 C3,4 >= 0
I3 + I11 - 2 C3,11 >= 0
I4 + I5 - 2 C4,5 >= 0
I4 + I12 - 2 C4,12 >= 0
I5 + I6 - 2 C5,6 >= 0
I5 + I13 - 2 C5,13 >= 0
I6 + I7 - 2 C6,7 >= 0
I6 + I14 - 2 C6,14 >= 0
I7 + I8 - 2 C7,8 >= 0
I7 + I15 - 2 C7,15 >= 0
I8 + I16 - 2 C8,16 >= 0
I9 + I10 - 2 C9,10 >= 0
I9 + I17 - 2 C9,17 >= 0
I10 + I11 - 2 C10,11 >= 0
I10 + I18 - 2 C10,18 >= 0
I11 + I12 - 2 C11,12 >= 0
I11 + I19 - 2 C11,19 >= 0
I12 + I13 - 2 C12,13 >= 0
I12 + I20 - 2 C12,20 >= 0
I13 + I14 - 2 C13,14 >= 0
I13 + I21 - 2 C13,21 >= 0
I14 + I15 - 2 C14,15 >= 0
I14 + I22 - 2 C14,22 >= 0
I15 + I16 - 2 C15,16 >= 0
I15 + I23 - 2 C15,23 >= 0
I16 + I24 - 2 C16,24 >= 0
I17 + I18 - 2 C17,18 >= 0
I17 + I25 - 2 C17,25 >= 0
I18 + I19 - 2 C18,19 >= 0
I18 + I26 - 2 C18,26 >= 0
I19 + I20 - 2 C19,20 >= 0
I19 + I27 - 2 C19,27 >= 0
I20 + I21 - 2 C20,21 >= 0
I20 + I28 - 2 C20,28 >= 0
I21 + I22 - 2 C21,22 >= 0
I21 + I29 - 2 C21,29 >= 0
I22 + I23 - 2 C22,23 >= 0
I22 + I30 - 2 C22,30 >= 0
I23 + I24 - 2 C23,24 >= 0
I23 + I31 - 2 C23,31 >= 0
I24 + I32 - 2 C24,32 >= 0
I25 + I26 - 2 C25,26 >= 0
I25 + I33 - 2 C25,33 >= 0
I26 + I27 - 2 C26,27 >= 0
I26 + I34 - 2 C26,34 >= 0
I27 + I28 - 2 C27,28 >= 0
I27 + I35 - 2 C27,35 >= 0
I28 + I29 - 2 C28,29 >= 0
I28 + I36 - 2 C28,36 >= 0
I29 + I30 - 2 C29,30 >= 0
I29 + I37 - 2 C29,37 >= 0
I30 + I31 - 2 C30,31 >= 0
I30 + I38 - 2 C30,38 >= 0
I31 + I32 - 2 C31,32 >= 0
I31 + I39 - 2 C31,39 >= 0
I32 + I40 - 2 C32,40 >= 0
I33 + I34 - 2 C33,34 >= 0
I33 + I41 - 2 C33,41 >= 0
I34 + I35 - 2 C34,35 >= 0
I34 + I42 - 2 C34,42 >= 0
I35 + I36 - 2 C35,36 >= 0
I35 + I43 - 2 C35,43 >= 0
I36 + I37 - 2 C36,37 >= 0
I36 + I44 - 2 C36,44 >= 0
I37 + I38 - 2 C37,38 >= 0
I37 + I45 - 2 C37,45 >= 0
I38 + I39 - 2 C38,39 >= 0
I38 + I46 - 2 C38,46 >= 0
I39 + I40 - 2 C39,40 >= 0
I39 + I47 - 2 C39,47 >= 0
I40 + I48 - 2 C40,48 >= 0
I41 + I42 - 2 C41,42 >= 0
I41 + I49 - 2 C41,49 >= 0
I42 + I43 - 2 C42,43 >= 0
I42 + I50 - 2 C42,50 >= 0
I43 + I44 - 2 C43,44 >= 0
I43 + I51 - 2 C43,51 >= 0
I44 + I45 - 2 C44,45 >= 0
I44 + I52 - 2 C44,52 >= 0
I45 + I46 - 2 C45,46 >= 0
I45 + I53 - 2 C45,53 >= 0
I46 + I47 - 2 C46,47 >= 0
I46 + I54 - 2 C46,54 >= 0
I47 + I48 - 2 C47,48 >= 0
I47 + I55 - 2 C47,55 >= 0
I48 + I56 - 2 C48,56 >= 0
I49 + I50 - 2 C49,50 >= 0
I49 + I57 - 2 C49,57 >= 0
I50 + I51 - 2 C50,51 >= 0
I50 + I58 - 2 C50,58 >= 0
I51 + I52 - 2 C51,52 >= 0
I51 + I59 - 2 C51,59 >= 0
I52 + I53 - 2 C52,53 >= 0
I52 + I60 - 2 C52,60 >= 0
I53 + I54 - 2 C53,54 >= 0
I53 + I61 - 2 C53,61 >= 0
I54 + I55 - 2 C54,55 >= 0
I54 + I62 - 2 C54,62 >= 0
I55 + I56 - 2 C55,56 >= 0
I55 + I63 - 2 C55,63 >= 0
I56 + I64 - 2 C56,64 >= 0
I57 + I58 - 2 C57,58 >= 0
I58 + I59 - 2 C58,59 >= 0
I59 + I60 - 2 C59,60 >= 0
I60 + I61 - 2 C60,61 >= 0
I61 + I62 - 2 C61,62 >= 0
I62 + I63 - 2 C62,63 >= 0
I63 + I64 - 2 C63,64 >= 0
 

binary 
C1,2
C1,9
C2,3
C2,10
C3,4
C3,11
C4,5
C4,12
C5,6
C5,13
C6,7
C6,14
C7,8
C7,15
C8,16
C9,10
C9,17
C10,11
C10,18
C11,12
C11,19
C12,13
C12,20
C13,14
C13,21
C14,15
C14,22
C15,16
C15,23
C16,24
C17,18
C17,25
C18,19
C18,26
C19,20
C19,27
C20,21
C20,28
C21,22
C21,29
C22,23
C22,30
C23,24
C23,31
C24,32
C25,26
C25,33
C26,27
C26,34
C27,28
C27,35
C28,29
C28,36
C29,30
C29,37
C30,31
C30,38
C31,32
C31,39
C32,40
C33,34
C33,41
C34,35
C34,42
C35,36
C35,43
C36,37
C36,44
C37,38
C37,45
C38,39
C38,46
C39,40
C39,47
C40,48
C41,42
C41,49
C42,43
C42,50
C43,44
C43,51
C44,45
C44,52
C45,46
C45,53
C46,47
C46,54
C47,48
C47,55
C48,56
C49,50
C49,57
C50,51
C50,58
C51,52
C51,59
C52,53
C52,60
C53,54
C53,61
C54,55
C54,62
C55,56
C55,63
C56,64
C57,58
C58,59
C59,60
C60,61
C61,62
C62,63
C63,64
A1,1
A1,2
A1,3
A1,4
A1,5
A1,6
A1,7
A1,8
A1,9
A1,10
A1,11
A1,12
A1,13
A1,14
A1,15
A1,16
A1,17
A1,18
A1,19
A1,20
A1,21
A1,22
A1,23
A1,24
A1,25
A1,26
A1,27
A1,28
A1,29
A1,30
A1,31
A1,32
A1,33
A1,34
A1,35
A1,36
A1,37
A1,38
A1,39
A1,40
A1,41
A1,42
A1,43
A1,44
A1,45
A1,46
A1,47
A1,48
A1,49
A1,50
A1,51
A1,52
A1,53
A1,54
A1,55
A1,56
A1,57
A1,58
A1,59
A1,60
A1,61
A1,62
A1,63
A1,64
A2,1
A2,2
A2,3
A2,4
A2,5
A2,6
A2,7
A2,8
A2,9
A2,10
A2,11
A2,12
A2,13
A2,14
A2,15
A2,16
A2,17
A2,18
A2,19
A2,20
A2,21
A2,22
A2,23
A2,24
A2,25
A2,26
A2,27
A2,28
A2,29
A2,30
A2,31
A2,32
A2,33
A2,34
A2,35
A2,36
A2,37
A2,38
A2,39
A2,40
A2,41
A2,42
A2,43
A2,44
A2,45
A2,46
A2,47
A2,48
A2,49
A2,50
A2,51
A2,52
A2,53
A2,54
A2,55
A2,56
A2,57
A2,58
A2,59
A2,60
A2,61
A2,62
A2,63
A2,64
A3,1
A3,2
A3,3
A3,4
A3,5
A3,6
A3,7
A3,8
A3,9
A3,10
A3,11
A3,12
A3,13
A3,14
A3,15
A3,16
A3,17
A3,18
A3,19
A3,20
A3,21
A3,22
A3,23
A3,24
A3,25
A3,26
A3,27
A3,28
A3,29
A3,30
A3,31
A3,32
A3,33
A3,34
A3,35
A3,36
A3,37
A3,38
A3,39
A3,40
A3,41
A3,42
A3,43
A3,44
A3,45
A3,46
A3,47
A3,48
A3,49
A3,50
A3,51
A3,52
A3,53
A3,54
A3,55
A3,56
A3,57
A3,58
A3,59
A3,60
A3,61
A3,62
A3,63
A3,64
A4,1
A4,2
A4,3
A4,4
A4,5
A4,6
A4,7
A4,8
A4,9
A4,10
A4,11
A4,12
A4,13
A4,14
A4,15
A4,16
A4,17
A4,18
A4,19
A4,20
A4,21
A4,22
A4,23
A4,24
A4,25
A4,26
A4,27
A4,28
A4,29
A4,30
A4,31
A4,32
A4,33
A4,34
A4,35
A4,36
A4,37
A4,38
A4,39
A4,40
A4,41
A4,42
A4,43
A4,44
A4,45
A4,46
A4,47
A4,48
A4,49
A4,50
A4,51
A4,52
A4,53
A4,54
A4,55
A4,56
A4,57
A4,58
A4,59
A4,60
A4,61
A4,62
A4,63
A4,64
A5,1
A5,2
A5,3
A5,4
A5,5
A5,6
A5,7
A5,8
A5,9
A5,10
A5,11
A5,12
A5,13
A5,14
A5,15
A5,16
A5,17
A5,18
A5,19
A5,20
A5,21
A5,22
A5,23
A5,24
A5,25
A5,26
A5,27
A5,28
A5,29
A5,30
A5,31
A5,32
A5,33
A5,34
A5,35
A5,36
A5,37
A5,38
A5,39
A5,40
A5,41
A5,42
A5,43
A5,44
A5,45
A5,46
A5,47
A5,48
A5,49
A5,50
A5,51
A5,52
A5,53
A5,54
A5,55
A5,56
A5,57
A5,58
A5,59
A5,60
A5,61
A5,62
A5,63
A5,64
A6,1
A6,2
A6,3
A6,4
A6,5
A6,6
A6,7
A6,8
A6,9
A6,10
A6,11
A6,12
A6,13
A6,14
A6,15
A6,16
A6,17
A6,18
A6,19
A6,20
A6,21
A6,22
A6,23
A6,24
A6,25
A6,26
A6,27
A6,28
A6,29
A6,30
A6,31
A6,32
A6,33
A6,34
A6,35
A6,36
A6,37
A6,38
A6,39
A6,40
A6,41
A6,42
A6,43
A6,44
A6,45
A6,46
A6,47
A6,48
A6,49
A6,50
A6,51
A6,52
A6,53
A6,54
A6,55
A6,56
A6,57
A6,58
A6,59
A6,60
A6,61
A6,62
A6,63
A6,64
A7,1
A7,2
A7,3
A7,4
A7,5
A7,6
A7,7
A7,8
A7,9
A7,10
A7,11
A7,12
A7,13
A7,14
A7,15
A7,16
A7,17
A7,18
A7,19
A7,20
A7,21
A7,22
A7,23
A7,24
A7,25
A7,26
A7,27
A7,28
A7,29
A7,30
A7,31
A7,32
A7,33
A7,34
A7,35
A7,36
A7,37
A7,38
A7,39
A7,40
A7,41
A7,42
A7,43
A7,44
A7,45
A7,46
A7,47
A7,48
A7,49
A7,50
A7,51
A7,52
A7,53
A7,54
A7,55
A7,56
A7,57
A7,58
A7,59
A7,60
A7,61
A7,62
A7,63
A7,64
A8,1
A8,2
A8,3
A8,4
A8,5
A8,6
A8,7
A8,8
A8,9
A8,10
A8,11
A8,12
A8,13
A8,14
A8,15
A8,16
A8,17
A8,18
A8,19
A8,20
A8,21
A8,22
A8,23
A8,24
A8,25
A8,26
A8,27
A8,28
A8,29
A8,30
A8,31
A8,32
A8,33
A8,34
A8,35
A8,36
A8,37
A8,38
A8,39
A8,40
A8,41
A8,42
A8,43
A8,44
A8,45
A8,46
A8,47
A8,48
A8,49
A8,50
A8,51
A8,52
A8,53
A8,54
A8,55
A8,56
A8,57
A8,58
A8,59
A8,60
A8,61
A8,62
A8,63
A8,64
I1 
I2 
I3 
I4 
I5 
I6 
I7 
I8 
I9 
I10 
I11 
I12 
I13 
I14 
I15 
I16 
I17 
I18 
I19 
I20 
I21 
I22 
I23 
I24 
I25 
I26 
I27 
I28 
I29 
I30 
I31 
I32 
I33 
I34 
I35 
I36 
I37 
I38 
I39 
I40 
I41 
I42 
I43 
I44 
I45 
I46 
I47 
I48 
I49 
I50 
I51 
I52 
I53 
I54 
I55 
I56 
I57 
I58 
I59 
I60 
I61 
I62 
I63 
I64 
 
end